50 10437
5345 8299 5693 6796 8467 6429 3100 9065 8141 2623 5291 7702 8670 2999 6781 8401 7046 5196 2059 3904 10357 9204 7100 5720 4493 2408 7661 3327 3206 8148 10254 6617 7310 9611 10425 2015 1258 3320 9407 9679 9614 1791 9313 6604 2901 4801 3496 5893 8350 7246 
4345 7299 4693 5796 7467 5429 2100 8065 7141 1623 4291 6702 7670 1999 5781 7401 6046 4196 1059 2904 9357 8204 6100 4720 3493 1408 6661 2327 2206 7148 9254 5617 6310 8611 9425 1015 258 2320 8407 8679 8614 791 8313 5604 1901 3801 2496 4893 7350 6246 
